c 8x8
p cnf 64 784
1 2 9 0
-1 -2 9 0
-1 2 -9 0
1 -2 -9 0
1 2 3 10 0
-1 -2 3 10 0
-1 2 -3 10 0
-1 2 3 -10 0
1 -2 -3 10 0
1 -2 3 -10 0
1 2 -3 -10 0
-1 -2 -3 -10 0
2 3 4 11 0
-2 -3 4 11 0
-2 3 -4 11 0
-2 3 4 -11 0
2 -3 -4 11 0
2 -3 4 -11 0
2 3 -4 -11 0
-2 -3 -4 -11 0
3 4 5 12 0
-3 -4 5 12 0
-3 4 -5 12 0
-3 4 5 -12 0
3 -4 -5 12 0
3 -4 5 -12 0
3 4 -5 -12 0
-3 -4 -5 -12 0
4 5 6 13 0
-4 -5 6 13 0
-4 5 -6 13 0
-4 5 6 -13 0
4 -5 -6 13 0
4 -5 6 -13 0
4 5 -6 -13 0
-4 -5 -6 -13 0
5 6 7 14 0
-5 -6 7 14 0
-5 6 -7 14 0
-5 6 7 -14 0
5 -6 -7 14 0
5 -6 7 -14 0
5 6 -7 -14 0
-5 -6 -7 -14 0
6 7 8 15 0
-6 -7 8 15 0
-6 7 -8 15 0
-6 7 8 -15 0
6 -7 -8 15 0
6 -7 8 -15 0
6 7 -8 -15 0
-6 -7 -8 -15 0
7 8 16 0
-7 -8 16 0
-7 8 -16 0
7 -8 -16 0
1 9 10 17 0
-1 -9 10 17 0
-1 9 -10 17 0
-1 9 10 -17 0
1 -9 -10 17 0
1 -9 10 -17 0
1 9 -10 -17 0
-1 -9 -10 -17 0
2 9 10 11 18 0
-2 -9 10 11 18 0
-2 9 -10 11 18 0
-2 9 10 -11 18 0
-2 9 10 11 -18 0
2 -9 -10 11 18 0
2 -9 10 -11 18 0
2 -9 10 11 -18 0
2 9 -10 -11 18 0
2 9 -10 11 -18 0
2 9 10 -11 -18 0
-2 -9 -10 -11 18 0
-2 -9 -10 11 -18 0
-2 -9 10 -11 -18 0
-2 9 -10 -11 -18 0
2 -9 -10 -11 -18 0
3 10 11 12 19 0
-3 -10 11 12 19 0
-3 10 -11 12 19 0
-3 10 11 -12 19 0
-3 10 11 12 -19 0
3 -10 -11 12 19 0
3 -10 11 -12 19 0
3 -10 11 12 -19 0
3 10 -11 -12 19 0
3 10 -11 12 -19 0
3 10 11 -12 -19 0
-3 -10 -11 -12 19 0
-3 -10 -11 12 -19 0
-3 -10 11 -12 -19 0
-3 10 -11 -12 -19 0
3 -10 -11 -12 -19 0
4 11 12 13 20 0
-4 -11 12 13 20 0
-4 11 -12 13 20 0
-4 11 12 -13 20 0
-4 11 12 13 -20 0
4 -11 -12 13 20 0
4 -11 12 -13 20 0
4 -11 12 13 -20 0
4 11 -12 -13 20 0
4 11 -12 13 -20 0
4 11 12 -13 -20 0
-4 -11 -12 -13 20 0
-4 -11 -12 13 -20 0
-4 -11 12 -13 -20 0
-4 11 -12 -13 -20 0
4 -11 -12 -13 -20 0
5 12 13 14 21 0
-5 -12 13 14 21 0
-5 12 -13 14 21 0
-5 12 13 -14 21 0
-5 12 13 14 -21 0
5 -12 -13 14 21 0
5 -12 13 -14 21 0
5 -12 13 14 -21 0
5 12 -13 -14 21 0
5 12 -13 14 -21 0
5 12 13 -14 -21 0
-5 -12 -13 -14 21 0
-5 -12 -13 14 -21 0
-5 -12 13 -14 -21 0
-5 12 -13 -14 -21 0
5 -12 -13 -14 -21 0
6 13 14 15 22 0
-6 -13 14 15 22 0
-6 13 -14 15 22 0
-6 13 14 -15 22 0
-6 13 14 15 -22 0
6 -13 -14 15 22 0
6 -13 14 -15 22 0
6 -13 14 15 -22 0
6 13 -14 -15 22 0
6 13 -14 15 -22 0
6 13 14 -15 -22 0
-6 -13 -14 -15 22 0
-6 -13 -14 15 -22 0
-6 -13 14 -15 -22 0
-6 13 -14 -15 -22 0
6 -13 -14 -15 -22 0
7 14 15 16 23 0
-7 -14 15 16 23 0
-7 14 -15 16 23 0
-7 14 15 -16 23 0
-7 14 15 16 -23 0
7 -14 -15 16 23 0
7 -14 15 -16 23 0
7 -14 15 16 -23 0
7 14 -15 -16 23 0
7 14 -15 16 -23 0
7 14 15 -16 -23 0
-7 -14 -15 -16 23 0
-7 -14 -15 16 -23 0
-7 -14 15 -16 -23 0
-7 14 -15 -16 -23 0
7 -14 -15 -16 -23 0
8 15 16 24 0
-8 -15 16 24 0
-8 15 -16 24 0
-8 15 16 -24 0
8 -15 -16 24 0
8 -15 16 -24 0
8 15 -16 -24 0
-8 -15 -16 -24 0
9 17 18 25 0
-9 -17 18 25 0
-9 17 -18 25 0
-9 17 18 -25 0
9 -17 -18 25 0
9 -17 18 -25 0
9 17 -18 -25 0
-9 -17 -18 -25 0
10 17 18 19 26 0
-10 -17 18 19 26 0
-10 17 -18 19 26 0
-10 17 18 -19 26 0
-10 17 18 19 -26 0
10 -17 -18 19 26 0
10 -17 18 -19 26 0
10 -17 18 19 -26 0
10 17 -18 -19 26 0
10 17 -18 19 -26 0
10 17 18 -19 -26 0
-10 -17 -18 -19 26 0
-10 -17 -18 19 -26 0
-10 -17 18 -19 -26 0
-10 17 -18 -19 -26 0
10 -17 -18 -19 -26 0
11 18 19 20 27 0
-11 -18 19 20 27 0
-11 18 -19 20 27 0
-11 18 19 -20 27 0
-11 18 19 20 -27 0
11 -18 -19 20 27 0
11 -18 19 -20 27 0
11 -18 19 20 -27 0
11 18 -19 -20 27 0
11 18 -19 20 -27 0
11 18 19 -20 -27 0
-11 -18 -19 -20 27 0
-11 -18 -19 20 -27 0
-11 -18 19 -20 -27 0
-11 18 -19 -20 -27 0
11 -18 -19 -20 -27 0
12 19 20 21 28 0
-12 -19 20 21 28 0
-12 19 -20 21 28 0
-12 19 20 -21 28 0
-12 19 20 21 -28 0
12 -19 -20 21 28 0
12 -19 20 -21 28 0
12 -19 20 21 -28 0
12 19 -20 -21 28 0
12 19 -20 21 -28 0
12 19 20 -21 -28 0
-12 -19 -20 -21 28 0
-12 -19 -20 21 -28 0
-12 -19 20 -21 -28 0
-12 19 -20 -21 -28 0
12 -19 -20 -21 -28 0
13 20 21 22 29 0
-13 -20 21 22 29 0
-13 20 -21 22 29 0
-13 20 21 -22 29 0
-13 20 21 22 -29 0
13 -20 -21 22 29 0
13 -20 21 -22 29 0
13 -20 21 22 -29 0
13 20 -21 -22 29 0
13 20 -21 22 -29 0
13 20 21 -22 -29 0
-13 -20 -21 -22 29 0
-13 -20 -21 22 -29 0
-13 -20 21 -22 -29 0
-13 20 -21 -22 -29 0
13 -20 -21 -22 -29 0
14 21 22 23 30 0
-14 -21 22 23 30 0
-14 21 -22 23 30 0
-14 21 22 -23 30 0
-14 21 22 23 -30 0
14 -21 -22 23 30 0
14 -21 22 -23 30 0
14 -21 22 23 -30 0
14 21 -22 -23 30 0
14 21 -22 23 -30 0
14 21 22 -23 -30 0
-14 -21 -22 -23 30 0
-14 -21 -22 23 -30 0
-14 -21 22 -23 -30 0
-14 21 -22 -23 -30 0
14 -21 -22 -23 -30 0
15 22 23 24 31 0
-15 -22 23 24 31 0
-15 22 -23 24 31 0
-15 22 23 -24 31 0
-15 22 23 24 -31 0
15 -22 -23 24 31 0
15 -22 23 -24 31 0
15 -22 23 24 -31 0
15 22 -23 -24 31 0
15 22 -23 24 -31 0
15 22 23 -24 -31 0
-15 -22 -23 -24 31 0
-15 -22 -23 24 -31 0
-15 -22 23 -24 -31 0
-15 22 -23 -24 -31 0
15 -22 -23 -24 -31 0
16 23 24 32 0
-16 -23 24 32 0
-16 23 -24 32 0
-16 23 24 -32 0
16 -23 -24 32 0
16 -23 24 -32 0
16 23 -24 -32 0
-16 -23 -24 -32 0
17 25 26 33 0
-17 -25 26 33 0
-17 25 -26 33 0
-17 25 26 -33 0
17 -25 -26 33 0
17 -25 26 -33 0
17 25 -26 -33 0
-17 -25 -26 -33 0
18 25 26 27 34 0
-18 -25 26 27 34 0
-18 25 -26 27 34 0
-18 25 26 -27 34 0
-18 25 26 27 -34 0
18 -25 -26 27 34 0
18 -25 26 -27 34 0
18 -25 26 27 -34 0
18 25 -26 -27 34 0
18 25 -26 27 -34 0
18 25 26 -27 -34 0
-18 -25 -26 -27 34 0
-18 -25 -26 27 -34 0
-18 -25 26 -27 -34 0
-18 25 -26 -27 -34 0
18 -25 -26 -27 -34 0
19 26 27 28 35 0
-19 -26 27 28 35 0
-19 26 -27 28 35 0
-19 26 27 -28 35 0
-19 26 27 28 -35 0
19 -26 -27 28 35 0
19 -26 27 -28 35 0
19 -26 27 28 -35 0
19 26 -27 -28 35 0
19 26 -27 28 -35 0
19 26 27 -28 -35 0
-19 -26 -27 -28 35 0
-19 -26 -27 28 -35 0
-19 -26 27 -28 -35 0
-19 26 -27 -28 -35 0
19 -26 -27 -28 -35 0
20 27 28 29 36 0
-20 -27 28 29 36 0
-20 27 -28 29 36 0
-20 27 28 -29 36 0
-20 27 28 29 -36 0
20 -27 -28 29 36 0
20 -27 28 -29 36 0
20 -27 28 29 -36 0
20 27 -28 -29 36 0
20 27 -28 29 -36 0
20 27 28 -29 -36 0
-20 -27 -28 -29 36 0
-20 -27 -28 29 -36 0
-20 -27 28 -29 -36 0
-20 27 -28 -29 -36 0
20 -27 -28 -29 -36 0
21 28 29 30 37 0
-21 -28 29 30 37 0
-21 28 -29 30 37 0
-21 28 29 -30 37 0
-21 28 29 30 -37 0
21 -28 -29 30 37 0
21 -28 29 -30 37 0
21 -28 29 30 -37 0
21 28 -29 -30 37 0
21 28 -29 30 -37 0
21 28 29 -30 -37 0
-21 -28 -29 -30 37 0
-21 -28 -29 30 -37 0
-21 -28 29 -30 -37 0
-21 28 -29 -30 -37 0
21 -28 -29 -30 -37 0
22 29 30 31 38 0
-22 -29 30 31 38 0
-22 29 -30 31 38 0
-22 29 30 -31 38 0
-22 29 30 31 -38 0
22 -29 -30 31 38 0
22 -29 30 -31 38 0
22 -29 30 31 -38 0
22 29 -30 -31 38 0
22 29 -30 31 -38 0
22 29 30 -31 -38 0
-22 -29 -30 -31 38 0
-22 -29 -30 31 -38 0
-22 -29 30 -31 -38 0
-22 29 -30 -31 -38 0
22 -29 -30 -31 -38 0
23 30 31 32 39 0
-23 -30 31 32 39 0
-23 30 -31 32 39 0
-23 30 31 -32 39 0
-23 30 31 32 -39 0
23 -30 -31 32 39 0
23 -30 31 -32 39 0
23 -30 31 32 -39 0
23 30 -31 -32 39 0
23 30 -31 32 -39 0
23 30 31 -32 -39 0
-23 -30 -31 -32 39 0
-23 -30 -31 32 -39 0
-23 -30 31 -32 -39 0
-23 30 -31 -32 -39 0
23 -30 -31 -32 -39 0
24 31 32 40 0
-24 -31 32 40 0
-24 31 -32 40 0
-24 31 32 -40 0
24 -31 -32 40 0
24 -31 32 -40 0
24 31 -32 -40 0
-24 -31 -32 -40 0
25 33 34 41 0
-25 -33 34 41 0
-25 33 -34 41 0
-25 33 34 -41 0
25 -33 -34 41 0
25 -33 34 -41 0
25 33 -34 -41 0
-25 -33 -34 -41 0
26 33 34 35 42 0
-26 -33 34 35 42 0
-26 33 -34 35 42 0
-26 33 34 -35 42 0
-26 33 34 35 -42 0
26 -33 -34 35 42 0
26 -33 34 -35 42 0
26 -33 34 35 -42 0
26 33 -34 -35 42 0
26 33 -34 35 -42 0
26 33 34 -35 -42 0
-26 -33 -34 -35 42 0
-26 -33 -34 35 -42 0
-26 -33 34 -35 -42 0
-26 33 -34 -35 -42 0
26 -33 -34 -35 -42 0
27 34 35 36 43 0
-27 -34 35 36 43 0
-27 34 -35 36 43 0
-27 34 35 -36 43 0
-27 34 35 36 -43 0
27 -34 -35 36 43 0
27 -34 35 -36 43 0
27 -34 35 36 -43 0
27 34 -35 -36 43 0
27 34 -35 36 -43 0
27 34 35 -36 -43 0
-27 -34 -35 -36 43 0
-27 -34 -35 36 -43 0
-27 -34 35 -36 -43 0
-27 34 -35 -36 -43 0
27 -34 -35 -36 -43 0
28 35 36 37 44 0
-28 -35 36 37 44 0
-28 35 -36 37 44 0
-28 35 36 -37 44 0
-28 35 36 37 -44 0
28 -35 -36 37 44 0
28 -35 36 -37 44 0
28 -35 36 37 -44 0
28 35 -36 -37 44 0
28 35 -36 37 -44 0
28 35 36 -37 -44 0
-28 -35 -36 -37 44 0
-28 -35 -36 37 -44 0
-28 -35 36 -37 -44 0
-28 35 -36 -37 -44 0
28 -35 -36 -37 -44 0
29 36 37 38 45 0
-29 -36 37 38 45 0
-29 36 -37 38 45 0
-29 36 37 -38 45 0
-29 36 37 38 -45 0
29 -36 -37 38 45 0
29 -36 37 -38 45 0
29 -36 37 38 -45 0
29 36 -37 -38 45 0
29 36 -37 38 -45 0
29 36 37 -38 -45 0
-29 -36 -37 -38 45 0
-29 -36 -37 38 -45 0
-29 -36 37 -38 -45 0
-29 36 -37 -38 -45 0
29 -36 -37 -38 -45 0
30 37 38 39 46 0
-30 -37 38 39 46 0
-30 37 -38 39 46 0
-30 37 38 -39 46 0
-30 37 38 39 -46 0
30 -37 -38 39 46 0
30 -37 38 -39 46 0
30 -37 38 39 -46 0
30 37 -38 -39 46 0
30 37 -38 39 -46 0
30 37 38 -39 -46 0
-30 -37 -38 -39 46 0
-30 -37 -38 39 -46 0
-30 -37 38 -39 -46 0
-30 37 -38 -39 -46 0
30 -37 -38 -39 -46 0
31 38 39 40 47 0
-31 -38 39 40 47 0
-31 38 -39 40 47 0
-31 38 39 -40 47 0
-31 38 39 40 -47 0
31 -38 -39 40 47 0
31 -38 39 -40 47 0
31 -38 39 40 -47 0
31 38 -39 -40 47 0
31 38 -39 40 -47 0
31 38 39 -40 -47 0
-31 -38 -39 -40 47 0
-31 -38 -39 40 -47 0
-31 -38 39 -40 -47 0
-31 38 -39 -40 -47 0
31 -38 -39 -40 -47 0
32 39 40 48 0
-32 -39 40 48 0
-32 39 -40 48 0
-32 39 40 -48 0
32 -39 -40 48 0
32 -39 40 -48 0
32 39 -40 -48 0
-32 -39 -40 -48 0
33 41 42 49 0
-33 -41 42 49 0
-33 41 -42 49 0
-33 41 42 -49 0
33 -41 -42 49 0
33 -41 42 -49 0
33 41 -42 -49 0
-33 -41 -42 -49 0
34 41 42 43 50 0
-34 -41 42 43 50 0
-34 41 -42 43 50 0
-34 41 42 -43 50 0
-34 41 42 43 -50 0
34 -41 -42 43 50 0
34 -41 42 -43 50 0
34 -41 42 43 -50 0
34 41 -42 -43 50 0
34 41 -42 43 -50 0
34 41 42 -43 -50 0
-34 -41 -42 -43 50 0
-34 -41 -42 43 -50 0
-34 -41 42 -43 -50 0
-34 41 -42 -43 -50 0
34 -41 -42 -43 -50 0
35 42 43 44 51 0
-35 -42 43 44 51 0
-35 42 -43 44 51 0
-35 42 43 -44 51 0
-35 42 43 44 -51 0
35 -42 -43 44 51 0
35 -42 43 -44 51 0
35 -42 43 44 -51 0
35 42 -43 -44 51 0
35 42 -43 44 -51 0
35 42 43 -44 -51 0
-35 -42 -43 -44 51 0
-35 -42 -43 44 -51 0
-35 -42 43 -44 -51 0
-35 42 -43 -44 -51 0
35 -42 -43 -44 -51 0
36 43 44 45 52 0
-36 -43 44 45 52 0
-36 43 -44 45 52 0
-36 43 44 -45 52 0
-36 43 44 45 -52 0
36 -43 -44 45 52 0
36 -43 44 -45 52 0
36 -43 44 45 -52 0
36 43 -44 -45 52 0
36 43 -44 45 -52 0
36 43 44 -45 -52 0
-36 -43 -44 -45 52 0
-36 -43 -44 45 -52 0
-36 -43 44 -45 -52 0
-36 43 -44 -45 -52 0
36 -43 -44 -45 -52 0
37 44 45 46 53 0
-37 -44 45 46 53 0
-37 44 -45 46 53 0
-37 44 45 -46 53 0
-37 44 45 46 -53 0
37 -44 -45 46 53 0
37 -44 45 -46 53 0
37 -44 45 46 -53 0
37 44 -45 -46 53 0
37 44 -45 46 -53 0
37 44 45 -46 -53 0
-37 -44 -45 -46 53 0
-37 -44 -45 46 -53 0
-37 -44 45 -46 -53 0
-37 44 -45 -46 -53 0
37 -44 -45 -46 -53 0
38 45 46 47 54 0
-38 -45 46 47 54 0
-38 45 -46 47 54 0
-38 45 46 -47 54 0
-38 45 46 47 -54 0
38 -45 -46 47 54 0
38 -45 46 -47 54 0
38 -45 46 47 -54 0
38 45 -46 -47 54 0
38 45 -46 47 -54 0
38 45 46 -47 -54 0
-38 -45 -46 -47 54 0
-38 -45 -46 47 -54 0
-38 -45 46 -47 -54 0
-38 45 -46 -47 -54 0
38 -45 -46 -47 -54 0
39 46 47 48 55 0
-39 -46 47 48 55 0
-39 46 -47 48 55 0
-39 46 47 -48 55 0
-39 46 47 48 -55 0
39 -46 -47 48 55 0
39 -46 47 -48 55 0
39 -46 47 48 -55 0
39 46 -47 -48 55 0
39 46 -47 48 -55 0
39 46 47 -48 -55 0
-39 -46 -47 -48 55 0
-39 -46 -47 48 -55 0
-39 -46 47 -48 -55 0
-39 46 -47 -48 -55 0
39 -46 -47 -48 -55 0
40 47 48 56 0
-40 -47 48 56 0
-40 47 -48 56 0
-40 47 48 -56 0
40 -47 -48 56 0
40 -47 48 -56 0
40 47 -48 -56 0
-40 -47 -48 -56 0
41 49 50 57 0
-41 -49 50 57 0
-41 49 -50 57 0
-41 49 50 -57 0
41 -49 -50 57 0
41 -49 50 -57 0
41 49 -50 -57 0
-41 -49 -50 -57 0
42 49 50 51 58 0
-42 -49 50 51 58 0
-42 49 -50 51 58 0
-42 49 50 -51 58 0
-42 49 50 51 -58 0
42 -49 -50 51 58 0
42 -49 50 -51 58 0
42 -49 50 51 -58 0
42 49 -50 -51 58 0
42 49 -50 51 -58 0
42 49 50 -51 -58 0
-42 -49 -50 -51 58 0
-42 -49 -50 51 -58 0
-42 -49 50 -51 -58 0
-42 49 -50 -51 -58 0
42 -49 -50 -51 -58 0
43 50 51 52 59 0
-43 -50 51 52 59 0
-43 50 -51 52 59 0
-43 50 51 -52 59 0
-43 50 51 52 -59 0
43 -50 -51 52 59 0
43 -50 51 -52 59 0
43 -50 51 52 -59 0
43 50 -51 -52 59 0
43 50 -51 52 -59 0
43 50 51 -52 -59 0
-43 -50 -51 -52 59 0
-43 -50 -51 52 -59 0
-43 -50 51 -52 -59 0
-43 50 -51 -52 -59 0
43 -50 -51 -52 -59 0
44 51 52 53 60 0
-44 -51 52 53 60 0
-44 51 -52 53 60 0
-44 51 52 -53 60 0
-44 51 52 53 -60 0
44 -51 -52 53 60 0
44 -51 52 -53 60 0
44 -51 52 53 -60 0
44 51 -52 -53 60 0
44 51 -52 53 -60 0
44 51 52 -53 -60 0
-44 -51 -52 -53 60 0
-44 -51 -52 53 -60 0
-44 -51 52 -53 -60 0
-44 51 -52 -53 -60 0
44 -51 -52 -53 -60 0
45 52 53 54 61 0
-45 -52 53 54 61 0
-45 52 -53 54 61 0
-45 52 53 -54 61 0
-45 52 53 54 -61 0
45 -52 -53 54 61 0
45 -52 53 -54 61 0
45 -52 53 54 -61 0
45 52 -53 -54 61 0
45 52 -53 54 -61 0
45 52 53 -54 -61 0
-45 -52 -53 -54 61 0
-45 -52 -53 54 -61 0
-45 -52 53 -54 -61 0
-45 52 -53 -54 -61 0
45 -52 -53 -54 -61 0
46 53 54 55 62 0
-46 -53 54 55 62 0
-46 53 -54 55 62 0
-46 53 54 -55 62 0
-46 53 54 55 -62 0
46 -53 -54 55 62 0
46 -53 54 -55 62 0
46 -53 54 55 -62 0
46 53 -54 -55 62 0
46 53 -54 55 -62 0
46 53 54 -55 -62 0
-46 -53 -54 -55 62 0
-46 -53 -54 55 -62 0
-46 -53 54 -55 -62 0
-46 53 -54 -55 -62 0
46 -53 -54 -55 -62 0
47 54 55 56 63 0
-47 -54 55 56 63 0
-47 54 -55 56 63 0
-47 54 55 -56 63 0
-47 54 55 56 -63 0
47 -54 -55 56 63 0
47 -54 55 -56 63 0
47 -54 55 56 -63 0
47 54 -55 -56 63 0
47 54 -55 56 -63 0
47 54 55 -56 -63 0
-47 -54 -55 -56 63 0
-47 -54 -55 56 -63 0
-47 -54 55 -56 -63 0
-47 54 -55 -56 -63 0
47 -54 -55 -56 -63 0
48 55 56 64 0
-48 -55 56 64 0
-48 55 -56 64 0
-48 55 56 -64 0
48 -55 -56 64 0
48 -55 56 -64 0
48 55 -56 -64 0
-48 -55 -56 -64 0
49 57 58 0
-49 -57 58 0
-49 57 -58 0
49 -57 -58 0
50 57 58 59 0
-50 -57 58 59 0
-50 57 -58 59 0
-50 57 58 -59 0
50 -57 -58 59 0
50 -57 58 -59 0
50 57 -58 -59 0
-50 -57 -58 -59 0
51 58 59 60 0
-51 -58 59 60 0
-51 58 -59 60 0
-51 58 59 -60 0
51 -58 -59 60 0
51 -58 59 -60 0
51 58 -59 -60 0
-51 -58 -59 -60 0
52 59 60 61 0
-52 -59 60 61 0
-52 59 -60 61 0
-52 59 60 -61 0
52 -59 -60 61 0
52 -59 60 -61 0
52 59 -60 -61 0
-52 -59 -60 -61 0
53 60 61 62 0
-53 -60 61 62 0
-53 60 -61 62 0
-53 60 61 -62 0
53 -60 -61 62 0
53 -60 61 -62 0
53 60 -61 -62 0
-53 -60 -61 -62 0
54 61 62 63 0
-54 -61 62 63 0
-54 61 -62 63 0
-54 61 62 -63 0
54 -61 -62 63 0
54 -61 62 -63 0
54 61 -62 -63 0
-54 -61 -62 -63 0
55 62 63 64 0
-55 -62 63 64 0
-55 62 -63 64 0
-55 62 63 -64 0
55 -62 -63 64 0
55 -62 63 -64 0
55 62 -63 -64 0
-55 -62 -63 -64 0
56 63 64 0
-56 -63 64 0
-56 63 -64 0
56 -63 -64 0
